2428, 0, 0, 50, 1
2429, 0, 1, 37, 0
2430, 0, 2, 73, 3
2431, 0, 3, 54, 2
2432, 1, 0, 38, 1
2433, 1, 1, 75, 2
2434, 1, 2, 40, 0
2435, 1, 3, 45, 3
2436, 2, 0, 84, 3
2437, 2, 1, 42, 0
2438, 2, 2, 55, 1
2439, 2, 3, 48, 2
2440, 3, 0, 36, 2
2441, 3, 1, 95, 1
2442, 3, 2, 56, 3
2443, 3, 3, 59, 0
